code/vi_33_20_packing_lift_bin.sol
Optimal (within gap tolerance) - objective value 19 - solution time 0
0 x(1,i,0,2,0) 1 0
1 x(1,2,0) 0 0
2 e(1,2,0) 1 0
4 e(1,2,1) 1 0
6 e(1,2,2) 1 0
7 x(1,2,3) 0 0
8 e(1,2,3) 1 0
10 e(1,2,4) 1 0
12 e(1,2,5) 1 0
13 x(1,2,6) 1 0
16 x(1,3,3) 0 0
23 e(1,3,6) 0 0
25 e(1,3,7) 0 0
27 e(1,3,8) 0 0
28 x(1,3,9) 1 0
31 x(1,1,8) 0 0
43 x(1,1,14) 1 0
47 x(2,i,0,2,0) 1 0
48 x(2,2,0) 1 0
49 e(2,2,0) 1 0
51 e(2,2,1) 1 0
53 e(2,2,2) 1 0
55 e(2,2,3) 1 0
57 e(2,2,4) 1 0
58 x(2,2,5) 1 0
65 x(2,1,5) 1 0
75 x(2,1,10) 1 0
83 e(2,3,9) 1 0
85 e(2,3,10) 1 0
87 e(2,3,11) 1 0
89 e(2,3,12) 1 0
91 e(2,3,13) 1 0
93 e(2,3,14) 1 0
94 x(2,3,15) 1 0
100 x(3,i,0,2,0) 1 0
101 x(3,2,0) 0 0
102 e(3,2,0) 1 0
104 e(3,2,1) 1 0
106 e(3,2,2) 1 0
107 x(3,2,3) 0 0
108 e(3,2,3) 1 0
110 e(3,2,4) 1 0
112 e(3,2,5) 1 0
114 e(3,2,6) 1 0
116 e(3,2,7) 1 0
118 e(3,2,8) 1 0
119 x(3,2,9) 0 0
120 e(3,2,9) 0 0
121 x(3,2,10) 0 0
129 e(3,3,3) 0 0
130 x(3,3,4) 0 0
134 x(3,3,6) 0 0
146 x(3,3,12) 0 0
149 e(3,3,13) 0 0
150 x(3,3,14) 0 0
157 x(3,1,5) 0 0
162 e(3,1,7) 0 0
164 e(3,1,8) 0 0
166 e(3,1,9) 0 0
167 x(3,1,10) 0 0
173 x(3,1,13) 0 0
178 e(3,1,15) 0 0
179 x(3,1,16) 0 0
183 C 19 1
